1600 3120
1 2 2
1 41 2
2 3 2
2 42 5
3 4 2
3 43 3
4 5 3
4 44 2
5 6 4
5 45 5
6 7 1
6 46 2
7 8 3
7 47 3
8 9 3
8 48 2
9 10 3
9 49 1
10 11 1
10 50 2
11 12 2
11 51 2
12 13 5
12 52 5
13 14 1
13 53 5
14 15 2
14 54 1
15 16 2
15 55 3
16 17 5
16 56 4
17 18 3
17 57 3
18 19 3
18 58 5
19 20 4
19 59 2
20 21 1
20 60 5
21 22 5
21 61 1
22 23 3
22 62 1
23 24 5
23 63 3
24 25 2
24 64 3
25 26 2
25 65 2
26 27 1
26 66 1
27 28 4
27 67 3
28 29 5
28 68 4
29 30 4
29 69 3
30 31 2
30 70 1
31 32 1
31 71 1
32 33 3
32 72 4
33 34 3
33 73 4
34 35 2
34 74 5
35 36 1
35 75 1
36 37 3
36 76 2
37 38 2
37 77 1
38 39 2
38 78 3
39 40 4
39 79 1
40 80 3
41 42 2
41 81 5
42 43 3
42 82 1
43 44 3
43 83 4
44 45 3
44 84 3
45 46 4
45 85 2
46 47 3
46 86 5
47 48 5
47 87 1
48 49 3
48 88 4
49 50 1
49 89 4
50 51 3
50 90 2
51 52 4
51 91 1
52 53 2
52 92 3
53 54 4
53 93 4
54 55 1
54 94 1
55 56 3
55 95 5
56 57 3
56 96 2
57 58 2
57 97 3
58 59 4
58 98 3
59 60 2
59 99 1
60 61 4
60 100 5
61 62 2
61 101 5
62 63 2
62 102 4
63 64 4
63 103 1
64 65 5
64 104 3
65 66 2
65 105 5
66 67 3
66 106 2
67 68 3
67 107 5
68 69 5
68 108 2
69 70 5
69 109 5
70 71 5
70 110 4
71 72 1
71 111 3
72 73 5
72 112 3
73 74 5
73 113 2
74 75 4
74 114 4
75 76 1
75 115 5
76 77 1
76 116 5
77 78 2
77 117 5
78 79 2
78 118 2
79 80 5
79 119 3
80 120 1
81 82 3
81 121 3
82 83 3
82 122 3
83 84 4
83 123 3
84 85 2
84 124 1
85 86 1
85 125 5
86 87 2
86 126 4
87 88 2
87 127 2
88 89 5
88 128 2
89 90 1
89 129 4
90 91 2
90 130 4
91 92 5
91 131 3
92 93 4
92 132 2
93 94 3
93 133 4
94 95 2
94 134 1
95 96 4
95 135 4
96 97 3
96 136 5
97 98 2
97 137 4
98 99 5
98 138 2
99 100 2
99 139 4
100 101 4
100 140 4
101 102 1
101 141 3
102 103 4
102 142 2
103 104 3
103 143 1
104 105 1
104 144 1
105 106 4
105 145 2
106 107 5
106 146 2
107 108 3
107 147 2
108 109 3
108 148 3
109 110 5
109 149 4
110 111 5
110 150 2
111 112 2
111 151 1
112 113 5
112 152 2
113 114 5
113 153 2
114 115 3
114 154 3
115 116 1
115 155 5
116 117 1
116 156 3
117 118 3
117 157 1
118 119 2
118 158 5
119 120 3
119 159 2
120 160 5
121 122 3
121 161 1
122 123 1
122 162 1
123 124 4
123 163 5
124 125 4
124 164 4
125 126 3
125 165 1
126 127 2
126 166 3
127 128 1
127 167 2
128 129 5
128 168 1
129 130 3
129 169 5
130 131 1
130 170 5
131 132 3
131 171 4
132 133 4
132 172 3
133 134 3
133 173 4
134 135 5
134 174 1
135 136 1
135 175 1
136 137 4
136 176 2
137 138 2
137 177 3
138 139 3
138 178 2
139 140 1
139 179 3
140 141 5
140 180 2
141 142 4
141 181 5
142 143 5
142 182 5
143 144 4
143 183 4
144 145 1
144 184 4
145 146 3
145 185 1
146 147 5
146 186 3
147 148 1
147 187 4
148 149 1
148 188 4
149 150 5
149 189 1
150 151 5
150 190 2
151 152 4
151 191 1
152 153 2
152 192 1
153 154 2
153 193 1
154 155 5
154 194 5
155 156 2
155 195 4
156 157 1
156 196 5
157 158 1
157 197 3
158 159 5
158 198 2
159 160 3
159 199 2
160 200 1
161 162 2
161 201 1
162 163 3
162 202 4
163 164 5
163 203 2
164 165 5
164 204 3
165 166 2
165 205 2
166 167 5
166 206 1
167 168 3
167 207 5
168 169 3
168 208 5
169 170 1
169 209 4
170 171 4
170 210 2
171 172 1
171 211 2
172 173 5
172 212 4
173 174 1
173 213 4
174 175 5
174 214 3
175 176 5
175 215 3
176 177 1
176 216 1
177 178 3
177 217 1
178 179 2
178 218 2
179 180 4
179 219 3
180 181 2
180 220 4
181 182 5
181 221 2
182 183 5
182 222 1
183 184 2
183 223 5
184 185 4
184 224 1
185 186 2
185 225 4
186 187 1
186 226 5
187 188 2
187 227 4
188 189 1
188 228 3
189 190 1
189 229 5
190 191 4
190 230 4
191 192 5
191 231 1
192 193 5
192 232 5
193 194 3
193 233 4
194 195 1
194 234 1
195 196 5
195 235 5
196 197 1
196 236 5
197 198 3
197 237 1
198 199 3
198 238 3
199 200 5
199 239 4
200 240 2
201 202 3
201 241 5
202 203 2
202 242 2
203 204 2
203 243 3
204 205 2
204 244 1
205 206 4
205 245 4
206 207 5
206 246 4
207 208 3
207 247 3
208 209 5
208 248 4
209 210 3
209 249 1
210 211 5
210 250 4
211 212 3
211 251 4
212 213 3
212 252 1
213 214 5
213 253 3
214 215 1
214 254 2
215 216 1
215 255 4
216 217 3
216 256 5
217 218 3
217 257 2
218 219 2
218 258 3
219 220 5
219 259 3
220 221 5
220 260 4
221 222 4
221 261 5
222 223 2
222 262 3
223 224 3
223 263 5
224 225 5
224 264 3
225 226 2
225 265 3
226 227 1
226 266 3
227 228 3
227 267 1
228 229 2
228 268 1
229 230 2
229 269 1
230 231 4
230 270 4
231 232 1
231 271 2
232 233 1
232 272 1
233 234 2
233 273 5
234 235 2
234 274 3
235 236 1
235 275 2
236 237 5
236 276 4
237 238 3
237 277 3
238 239 4
238 278 5
239 240 4
239 279 5
240 280 1
241 242 3
241 281 1
242 243 2
242 282 2
243 244 3
243 283 1
244 245 5
244 284 5
245 246 1
245 285 3
246 247 2
246 286 2
247 248 4
247 287 5
248 249 2
248 288 2
249 250 3
249 289 5
250 251 5
250 290 2
251 252 3
251 291 5
252 253 3
252 292 1
253 254 5
253 293 2
254 255 3
254 294 1
255 256 5
255 295 1
256 257 2
256 296 4
257 258 3
257 297 3
258 259 5
258 298 3
259 260 5
259 299 4
260 261 5
260 300 1
261 262 1
261 301 5
262 263 4
262 302 3
263 264 1
263 303 1
264 265 1
264 304 5
265 266 5
265 305 3
266 267 3
266 306 4
267 268 2
267 307 4
268 269 5
268 308 4
269 270 2
269 309 4
270 271 1
270 310 5
271 272 4
271 311 5
272 273 3
272 312 3
273 274 4
273 313 1
274 275 4
274 314 5
275 276 5
275 315 5
276 277 1
276 316 2
277 278 5
277 317 2
278 279 4
278 318 2
279 280 4
279 319 3
280 320 2
281 282 3
281 321 4
282 283 3
282 322 2
283 284 1
283 323 1
284 285 2
284 324 2
285 286 2
285 325 4
286 287 1
286 326 1
287 288 5
287 327 5
288 289 4
288 328 4
289 290 3
289 329 5
290 291 4
290 330 3
291 292 4
291 331 3
292 293 2
292 332 5
293 294 4
293 333 5
294 295 5
294 334 2
295 296 1
295 335 2
296 297 2
296 336 5
297 298 2
297 337 3
298 299 5
298 338 4
299 300 1
299 339 2
300 301 2
300 340 5
301 302 3
301 341 1
302 303 3
302 342 4
303 304 2
303 343 5
304 305 3
304 344 3
305 306 2
305 345 1
306 307 3
306 346 1
307 308 3
307 347 4
308 309 3
308 348 5
309 310 2
309 349 4
310 311 4
310 350 1
311 312 3
311 351 4
312 313 4
312 352 2
313 314 4
313 353 1
314 315 4
314 354 4
315 316 2
315 355 5
316 317 1
316 356 4
317 318 2
317 357 5
318 319 1
318 358 5
319 320 3
319 359 5
320 360 1
321 322 1
321 361 3
322 323 1
322 362 4
323 324 2
323 363 5
324 325 2
324 364 2
325 326 3
325 365 5
326 327 1
326 366 4
327 328 3
327 367 2
328 329 1
328 368 2
329 330 1
329 369 5
330 331 2
330 370 5
331 332 5
331 371 3
332 333 1
332 372 2
333 334 1
333 373 2
334 335 3
334 374 1
335 336 4
335 375 1
336 337 2
336 376 3
337 338 3
337 377 3
338 339 4
338 378 4
339 340 4
339 379 5
340 341 1
340 380 3
341 342 1
341 381 5
342 343 3
342 382 4
343 344 3
343 383 4
344 345 4
344 384 1
345 346 1
345 385 2
346 347 1
346 386 3
347 348 1
347 387 2
348 349 3
348 388 5
349 350 2
349 389 5
350 351 1
350 390 4
351 352 3
351 391 4
352 353 5
352 392 4
353 354 2
353 393 5
354 355 5
354 394 2
355 356 1
355 395 3
356 357 4
356 396 3
357 358 5
357 397 5
358 359 4
358 398 3
359 360 1
359 399 4
360 400 4
361 362 4
361 401 2
362 363 1
362 402 1
363 364 4
363 403 5
364 365 3
364 404 3
365 366 5
365 405 2
366 367 1
366 406 3
367 368 2
367 407 4
368 369 2
368 408 3
369 370 2
369 409 5
370 371 4
370 410 3
371 372 5
371 411 5
372 373 3
372 412 4
373 374 3
373 413 5
374 375 5
374 414 4
375 376 2
375 415 5
376 377 1
376 416 4
377 378 5
377 417 1
378 379 1
378 418 5
379 380 4
379 419 3
380 381 1
380 420 4
381 382 2
381 421 5
382 383 3
382 422 3
383 384 3
383 423 5
384 385 4
384 424 5
385 386 2
385 425 1
386 387 2
386 426 2
387 388 2
387 427 3
388 389 4
388 428 1
389 390 3
389 429 5
390 391 2
390 430 4
391 392 5
391 431 1
392 393 1
392 432 3
393 394 5
393 433 5
394 395 4
394 434 5
395 396 2
395 435 1
396 397 2
396 436 2
397 398 5
397 437 5
398 399 2
398 438 3
399 400 4
399 439 1
400 440 1
401 402 2
401 441 1
402 403 2
402 442 4
403 404 1
403 443 4
404 405 5
404 444 5
405 406 2
405 445 4
406 407 4
406 446 5
407 408 4
407 447 2
408 409 4
408 448 2
409 410 5
409 449 1
410 411 2
410 450 2
411 412 4
411 451 3
412 413 2
412 452 1
413 414 1
413 453 5
414 415 1
414 454 1
415 416 1
415 455 2
416 417 2
416 456 3
417 418 5
417 457 3
418 419 1
418 458 3
419 420 1
419 459 2
420 421 5
420 460 2
421 422 4
421 461 3
422 423 5
422 462 1
423 424 4
423 463 3
424 425 2
424 464 4
425 426 2
425 465 3
426 427 2
426 466 1
427 428 5
427 467 3
428 429 5
428 468 4
429 430 1
429 469 2
430 431 3
430 470 3
431 432 5
431 471 5
432 433 4
432 472 1
433 434 2
433 473 3
434 435 3
434 474 5
435 436 1
435 475 5
436 437 3
436 476 3
437 438 3
437 477 4
438 439 1
438 478 5
439 440 2
439 479 4
440 480 5
441 442 5
441 481 1
442 443 2
442 482 2
443 444 3
443 483 3
444 445 3
444 484 5
445 446 5
445 485 1
446 447 1
446 486 1
447 448 3
447 487 4
448 449 5
448 488 4
449 450 3
449 489 2
450 451 4
450 490 2
451 452 3
451 491 5
452 453 3
452 492 3
453 454 4
453 493 1
454 455 5
454 494 4
455 456 5
455 495 5
456 457 4
456 496 4
457 458 1
457 497 2
458 459 2
458 498 2
459 460 2
459 499 2
460 461 5
460 500 5
461 462 3
461 501 4
462 463 4
462 502 4
463 464 3
463 503 5
464 465 1
464 504 3
465 466 3
465 505 1
466 467 4
466 506 4
467 468 5
467 507 2
468 469 4
468 508 1
469 470 5
469 509 4
470 471 5
470 510 5
471 472 1
471 511 4
472 473 4
472 512 4
473 474 5
473 513 5
474 475 3
474 514 5
475 476 2
475 515 2
476 477 1
476 516 3
477 478 2
477 517 1
478 479 1
478 518 3
479 480 4
479 519 1
480 520 2
481 482 1
481 521 3
482 483 3
482 522 5
483 484 4
483 523 4
484 485 3
484 524 3
485 486 5
485 525 1
486 487 5
486 526 5
487 488 1
487 527 3
488 489 4
488 528 1
489 490 3
489 529 1
490 491 2
490 530 1
491 492 1
491 531 4
492 493 2
492 532 2
493 494 1
493 533 3
494 495 4
494 534 2
495 496 1
495 535 2
496 497 3
496 536 2
497 498 5
497 537 4
498 499 1
498 538 2
499 500 3
499 539 4
500 501 2
500 540 5
501 502 5
501 541 4
502 503 4
502 542 1
503 504 1
503 543 5
504 505 1
504 544 1
505 506 1
505 545 3
506 507 2
506 546 1
507 508 5
507 547 1
508 509 4
508 548 5
509 510 3
509 549 1
510 511 4
510 550 2
511 512 4
511 551 1
512 513 4
512 552 2
513 514 3
513 553 5
514 515 3
514 554 2
515 516 4
515 555 5
516 517 3
516 556 4
517 518 3
517 557 4
518 519 2
518 558 3
519 520 5
519 559 5
520 560 2
521 522 2
521 561 4
522 523 5
522 562 5
523 524 1
523 563 3
524 525 3
524 564 3
525 526 5
525 565 2
526 527 5
526 566 1
527 528 5
527 567 3
528 529 1
528 568 4
529 530 1
529 569 2
530 531 5
530 570 1
531 532 4
531 571 1
532 533 5
532 572 5
533 534 3
533 573 5
534 535 2
534 574 4
535 536 2
535 575 2
536 537 5
536 576 3
537 538 4
537 577 5
538 539 3
538 578 1
539 540 2
539 579 1
540 541 1
540 580 1
541 542 4
541 581 2
542 543 2
542 582 5
543 544 3
543 583 3
544 545 3
544 584 2
545 546 2
545 585 3
546 547 1
546 586 1
547 548 1
547 587 2
548 549 3
548 588 1
549 550 3
549 589 1
550 551 1
550 590 5
551 552 2
551 591 2
552 553 5
552 592 3
553 554 1
553 593 5
554 555 3
554 594 1
555 556 4
555 595 1
556 557 3
556 596 4
557 558 4
557 597 5
558 559 2
558 598 1
559 560 2
559 599 3
560 600 2
561 562 3
561 601 4
562 563 2
562 602 5
563 564 4
563 603 1
564 565 2
564 604 3
565 566 1
565 605 5
566 567 5
566 606 3
567 568 3
567 607 5
568 569 4
568 608 4
569 570 2
569 609 2
570 571 5
570 610 4
571 572 4
571 611 1
572 573 4
572 612 5
573 574 4
573 613 5
574 575 3
574 614 2
575 576 5
575 615 5
576 577 5
576 616 2
577 578 1
577 617 1
578 579 2
578 618 1
579 580 5
579 619 1
580 581 3
580 620 5
581 582 3
581 621 1
582 583 5
582 622 2
583 584 5
583 623 5
584 585 4
584 624 3
585 586 2
585 625 3
586 587 3
586 626 4
587 588 4
587 627 3
588 589 5
588 628 1
589 590 2
589 629 4
590 591 5
590 630 5
591 592 1
591 631 5
592 593 1
592 632 2
593 594 5
593 633 1
594 595 3
594 634 2
595 596 5
595 635 1
596 597 4
596 636 4
597 598 1
597 637 3
598 599 2
598 638 2
599 600 5
599 639 4
600 640 1
601 602 3
601 641 1
602 603 2
602 642 2
603 604 5
603 643 4
604 605 5
604 644 3
605 606 3
605 645 3
606 607 5
606 646 1
607 608 1
607 647 5
608 609 4
608 648 1
609 610 5
609 649 2
610 611 4
610 650 2
611 612 3
611 651 3
612 613 2
612 652 4
613 614 4
613 653 1
614 615 5
614 654 5
615 616 4
615 655 3
616 617 3
616 656 5
617 618 5
617 657 1
618 619 2
618 658 1
619 620 5
619 659 3
620 621 2
620 660 4
621 622 5
621 661 4
622 623 5
622 662 5
623 624 2
623 663 1
624 625 1
624 664 2
625 626 5
625 665 2
626 627 5
626 666 4
627 628 5
627 667 3
628 629 4
628 668 5
629 630 2
629 669 4
630 631 5
630 670 1
631 632 4
631 671 3
632 633 1
632 672 5
633 634 2
633 673 2
634 635 5
634 674 5
635 636 4
635 675 4
636 637 1
636 676 4
637 638 3
637 677 5
638 639 4
638 678 1
639 640 5
639 679 5
640 680 3
641 642 1
641 681 4
642 643 5
642 682 3
643 644 3
643 683 4
644 645 1
644 684 4
645 646 3
645 685 3
646 647 1
646 686 3
647 648 5
647 687 1
648 649 2
648 688 3
649 650 3
649 689 2
650 651 4
650 690 4
651 652 3
651 691 4
652 653 2
652 692 5
653 654 3
653 693 4
654 655 1
654 694 3
655 656 2
655 695 5
656 657 5
656 696 3
657 658 3
657 697 1
658 659 1
658 698 1
659 660 2
659 699 5
660 661 2
660 700 5
661 662 4
661 701 1
662 663 5
662 702 1
663 664 4
663 703 2
664 665 4
664 704 5
665 666 5
665 705 1
666 667 3
666 706 2
667 668 3
667 707 4
668 669 5
668 708 1
669 670 2
669 709 2
670 671 4
670 710 2
671 672 3
671 711 1
672 673 4
672 712 5
673 674 5
673 713 1
674 675 3
674 714 3
675 676 4
675 715 5
676 677 5
676 716 2
677 678 5
677 717 5
678 679 4
678 718 4
679 680 3
679 719 2
680 720 4
681 682 3
681 721 1
682 683 2
682 722 5
683 684 3
683 723 1
684 685 5
684 724 2
685 686 1
685 725 1
686 687 2
686 726 4
687 688 5
687 727 1
688 689 2
688 728 2
689 690 2
689 729 3
690 691 5
690 730 5
691 692 4
691 731 2
692 693 2
692 732 5
693 694 4
693 733 1
694 695 3
694 734 1
695 696 2
695 735 4
696 697 3
696 736 1
697 698 1
697 737 3
698 699 2
698 738 2
699 700 4
699 739 3
700 701 5
700 740 1
701 702 3
701 741 5
702 703 3
702 742 2
703 704 2
703 743 1
704 705 1
704 744 1
705 706 4
705 745 4
706 707 4
706 746 3
707 708 2
707 747 5
708 709 2
708 748 4
709 710 3
709 749 4
710 711 4
710 750 5
711 712 5
711 751 4
712 713 3
712 752 1
713 714 5
713 753 2
714 715 3
714 754 4
715 716 2
715 755 3
716 717 1
716 756 2
717 718 5
717 757 1
718 719 4
718 758 1
719 720 5
719 759 1
720 760 3
721 722 5
721 761 5
722 723 5
722 762 2
723 724 1
723 763 2
724 725 3
724 764 1
725 726 1
725 765 1
726 727 2
726 766 1
727 728 3
727 767 5
728 729 5
728 768 3
729 730 3
729 769 5
730 731 5
730 770 2
731 732 5
731 771 2
732 733 2
732 772 2
733 734 3
733 773 2
734 735 2
734 774 2
735 736 4
735 775 4
736 737 5
736 776 3
737 738 3
737 777 2
738 739 2
738 778 3
739 740 1
739 779 5
740 741 5
740 780 1
741 742 2
741 781 4
742 743 1
742 782 4
743 744 4
743 783 4
744 745 1
744 784 3
745 746 3
745 785 3
746 747 3
746 786 4
747 748 5
747 787 5
748 749 2
748 788 3
749 750 4
749 789 1
750 751 2
750 790 3
751 752 2
751 791 4
752 753 4
752 792 4
753 754 1
753 793 5
754 755 2
754 794 5
755 756 1
755 795 2
756 757 5
756 796 3
757 758 3
757 797 3
758 759 4
758 798 2
759 760 4
759 799 1
760 800 3
761 762 4
761 801 1
762 763 4
762 802 2
763 764 5
763 803 4
764 765 1
764 804 3
765 766 2
765 805 3
766 767 1
766 806 3
767 768 4
767 807 1
768 769 5
768 808 2
769 770 1
769 809 5
770 771 5
770 810 4
771 772 5
771 811 1
772 773 4
772 812 1
773 774 2
773 813 5
774 775 2
774 814 5
775 776 2
775 815 5
776 777 1
776 816 4
777 778 3
777 817 1
778 779 5
778 818 3
779 780 4
779 819 2
780 781 2
780 820 2
781 782 3
781 821 4
782 783 2
782 822 2
783 784 1
783 823 3
784 785 1
784 824 5
785 786 2
785 825 1
786 787 3
786 826 4
787 788 2
787 827 1
788 789 5
788 828 1
789 790 4
789 829 5
790 791 4
790 830 5
791 792 2
791 831 3
792 793 1
792 832 1
793 794 1
793 833 1
794 795 3
794 834 5
795 796 4
795 835 2
796 797 1
796 836 5
797 798 2
797 837 2
798 799 5
798 838 2
799 800 1
799 839 1
800 840 2
801 802 4
801 841 2
802 803 3
802 842 1
803 804 3
803 843 3
804 805 4
804 844 1
805 806 1
805 845 1
806 807 1
806 846 2
807 808 3
807 847 5
808 809 2
808 848 5
809 810 2
809 849 1
810 811 4
810 850 3
811 812 1
811 851 3
812 813 5
812 852 5
813 814 5
813 853 2
814 815 5
814 854 5
815 816 1
815 855 5
816 817 5
816 856 4
817 818 4
817 857 4
818 819 4
818 858 4
819 820 4
819 859 4
820 821 2
820 860 3
821 822 2
821 861 3
822 823 5
822 862 3
823 824 1
823 863 1
824 825 1
824 864 3
825 826 5
825 865 4
826 827 2
826 866 4
827 828 4
827 867 3
828 829 5
828 868 3
829 830 5
829 869 4
830 831 2
830 870 1
831 832 3
831 871 5
832 833 3
832 872 1
833 834 3
833 873 5
834 835 2
834 874 4
835 836 2
835 875 2
836 837 5
836 876 5
837 838 1
837 877 3
838 839 5
838 878 5
839 840 1
839 879 2
840 880 1
841 842 3
841 881 3
842 843 2
842 882 2
843 844 2
843 883 5
844 845 3
844 884 2
845 846 1
845 885 1
846 847 5
846 886 1
847 848 1
847 887 5
848 849 2
848 888 4
849 850 3
849 889 3
850 851 2
850 890 3
851 852 1
851 891 3
852 853 5
852 892 1
853 854 5
853 893 1
854 855 2
854 894 2
855 856 1
855 895 1
856 857 2
856 896 3
857 858 1
857 897 3
858 859 4
858 898 5
859 860 1
859 899 4
860 861 2
860 900 1
861 862 3
861 901 4
862 863 4
862 902 2
863 864 1
863 903 5
864 865 4
864 904 3
865 866 1
865 905 1
866 867 3
866 906 3
867 868 2
867 907 4
868 869 3
868 908 1
869 870 4
869 909 3
870 871 4
870 910 5
871 872 1
871 911 1
872 873 2
872 912 2
873 874 4
873 913 4
874 875 1
874 914 2
875 876 1
875 915 3
876 877 4
876 916 1
877 878 3
877 917 3
878 879 4
878 918 5
879 880 5
879 919 3
880 920 1
881 882 2
881 921 4
882 883 4
882 922 1
883 884 4
883 923 2
884 885 5
884 924 1
885 886 3
885 925 2
886 887 3
886 926 1
887 888 5
887 927 2
888 889 4
888 928 2
889 890 2
889 929 5
890 891 4
890 930 2
891 892 2
891 931 4
892 893 4
892 932 5
893 894 2
893 933 4
894 895 2
894 934 5
895 896 2
895 935 5
896 897 4
896 936 2
897 898 1
897 937 2
898 899 5
898 938 2
899 900 5
899 939 1
900 901 5
900 940 5
901 902 3
901 941 2
902 903 4
902 942 5
903 904 5
903 943 5
904 905 3
904 944 3
905 906 5
905 945 3
906 907 4
906 946 5
907 908 4
907 947 2
908 909 1
908 948 4
909 910 4
909 949 4
910 911 4
910 950 4
911 912 4
911 951 4
912 913 1
912 952 2
913 914 1
913 953 5
914 915 4
914 954 3
915 916 1
915 955 5
916 917 1
916 956 5
917 918 1
917 957 3
918 919 2
918 958 3
919 920 4
919 959 1
920 960 3
921 922 5
921 961 4
922 923 4
922 962 2
923 924 1
923 963 5
924 925 3
924 964 4
925 926 1
925 965 3
926 927 5
926 966 5
927 928 3
927 967 4
928 929 4
928 968 3
929 930 4
929 969 1
930 931 1
930 970 3
931 932 1
931 971 4
932 933 5
932 972 2
933 934 1
933 973 3
934 935 5
934 974 1
935 936 2
935 975 2
936 937 1
936 976 5
937 938 3
937 977 2
938 939 4
938 978 2
939 940 1
939 979 4
940 941 5
940 980 4
941 942 5
941 981 4
942 943 5
942 982 5
943 944 2
943 983 5
944 945 3
944 984 2
945 946 2
945 985 1
946 947 3
946 986 4
947 948 1
947 987 2
948 949 1
948 988 1
949 950 1
949 989 1
950 951 2
950 990 1
951 952 2
951 991 4
952 953 5
952 992 4
953 954 1
953 993 5
954 955 4
954 994 4
955 956 2
955 995 4
956 957 3
956 996 5
957 958 1
957 997 4
958 959 1
958 998 1
959 960 3
959 999 4
960 1000 5
961 962 2
961 1001 5
962 963 4
962 1002 5
963 964 4
963 1003 3
964 965 4
964 1004 3
965 966 3
965 1005 3
966 967 2
966 1006 2
967 968 5
967 1007 2
968 969 5
968 1008 1
969 970 4
969 1009 4
970 971 2
970 1010 4
971 972 2
971 1011 3
972 973 4
972 1012 4
973 974 4
973 1013 1
974 975 2
974 1014 4
975 976 3
975 1015 3
976 977 3
976 1016 3
977 978 2
977 1017 4
978 979 1
978 1018 2
979 980 4
979 1019 3
980 981 5
980 1020 1
981 982 5
981 1021 4
982 983 3
982 1022 1
983 984 4
983 1023 2
984 985 5
984 1024 2
985 986 3
985 1025 1
986 987 1
986 1026 3
987 988 3
987 1027 4
988 989 1
988 1028 1
989 990 4
989 1029 3
990 991 3
990 1030 1
991 992 4
991 1031 1
992 993 1
992 1032 1
993 994 1
993 1033 5
994 995 2
994 1034 5
995 996 3
995 1035 4
996 997 5
996 1036 3
997 998 4
997 1037 1
998 999 3
998 1038 3
999 1000 2
999 1039 3
1000 1040 5
1001 1002 1
1001 1041 2
1002 1003 2
1002 1042 1
1003 1004 1
1003 1043 2
1004 1005 4
1004 1044 4
1005 1006 3
1005 1045 3
1006 1007 5
1006 1046 3
1007 1008 3
1007 1047 2
1008 1009 3
1008 1048 2
1009 1010 3
1009 1049 3
1010 1011 1
1010 1050 1
1011 1012 5
1011 1051 3
1012 1013 4
1012 1052 1
1013 1014 4
1013 1053 1
1014 1015 2
1014 1054 4
1015 1016 3
1015 1055 4
1016 1017 2
1016 1056 5
1017 1018 5
1017 1057 2
1018 1019 4
1018 1058 1
1019 1020 5
1019 1059 4
1020 1021 2
1020 1060 2
1021 1022 5
1021 1061 1
1022 1023 2
1022 1062 2
1023 1024 3
1023 1063 3
1024 1025 1
1024 1064 5
1025 1026 2
1025 1065 1
1026 1027 3
1026 1066 5
1027 1028 4
1027 1067 3
1028 1029 2
1028 1068 2
1029 1030 1
1029 1069 4
1030 1031 5
1030 1070 4
1031 1032 1
1031 1071 3
1032 1033 1
1032 1072 4
1033 1034 1
1033 1073 5
1034 1035 5
1034 1074 4
1035 1036 3
1035 1075 2
1036 1037 3
1036 1076 4
1037 1038 5
1037 1077 1
1038 1039 1
1038 1078 5
1039 1040 3
1039 1079 2
1040 1080 4
1041 1042 1
1041 1081 2
1042 1043 3
1042 1082 4
1043 1044 3
1043 1083 3
1044 1045 4
1044 1084 5
1045 1046 4
1045 1085 5
1046 1047 3
1046 1086 3
1047 1048 4
1047 1087 4
1048 1049 5
1048 1088 1
1049 1050 3
1049 1089 4
1050 1051 4
1050 1090 1
1051 1052 1
1051 1091 4
1052 1053 5
1052 1092 5
1053 1054 3
1053 1093 3
1054 1055 1
1054 1094 3
1055 1056 3
1055 1095 1
1056 1057 3
1056 1096 2
1057 1058 5
1057 1097 5
1058 1059 4
1058 1098 1
1059 1060 1
1059 1099 3
1060 1061 4
1060 1100 3
1061 1062 3
1061 1101 4
1062 1063 3
1062 1102 3
1063 1064 3
1063 1103 2
1064 1065 2
1064 1104 5
1065 1066 3
1065 1105 5
1066 1067 2
1066 1106 1
1067 1068 2
1067 1107 1
1068 1069 1
1068 1108 1
1069 1070 4
1069 1109 2
1070 1071 3
1070 1110 2
1071 1072 4
1071 1111 1
1072 1073 3
1072 1112 4
1073 1074 3
1073 1113 1
1074 1075 5
1074 1114 3
1075 1076 4
1075 1115 4
1076 1077 2
1076 1116 2
1077 1078 4
1077 1117 2
1078 1079 2
1078 1118 5
1079 1080 3
1079 1119 5
1080 1120 4
1081 1082 3
1081 1121 2
1082 1083 1
1082 1122 4
1083 1084 5
1083 1123 5
1084 1085 1
1084 1124 3
1085 1086 4
1085 1125 4
1086 1087 2
1086 1126 1
1087 1088 3
1087 1127 5
1088 1089 5
1088 1128 3
1089 1090 4
1089 1129 2
1090 1091 4
1090 1130 3
1091 1092 3
1091 1131 1
1092 1093 5
1092 1132 3
1093 1094 2
1093 1133 2
1094 1095 4
1094 1134 3
1095 1096 3
1095 1135 3
1096 1097 5
1096 1136 5
1097 1098 2
1097 1137 2
1098 1099 1
1098 1138 5
1099 1100 1
1099 1139 4
1100 1101 4
1100 1140 5
1101 1102 3
1101 1141 2
1102 1103 1
1102 1142 1
1103 1104 5
1103 1143 3
1104 1105 1
1104 1144 4
1105 1106 4
1105 1145 2
1106 1107 2
1106 1146 3
1107 1108 3
1107 1147 2
1108 1109 3
1108 1148 2
1109 1110 3
1109 1149 3
1110 1111 1
1110 1150 1
1111 1112 4
1111 1151 5
1112 1113 2
1112 1152 2
1113 1114 4
1113 1153 4
1114 1115 2
1114 1154 2
1115 1116 5
1115 1155 2
1116 1117 2
1116 1156 5
1117 1118 5
1117 1157 4
1118 1119 5
1118 1158 4
1119 1120 3
1119 1159 5
1120 1160 3
1121 1122 1
1121 1161 4
1122 1123 2
1122 1162 1
1123 1124 4
1123 1163 5
1124 1125 5
1124 1164 1
1125 1126 4
1125 1165 2
1126 1127 3
1126 1166 2
1127 1128 5
1127 1167 3
1128 1129 5
1128 1168 4
1129 1130 2
1129 1169 5
1130 1131 1
1130 1170 2
1131 1132 2
1131 1171 4
1132 1133 4
1132 1172 5
1133 1134 2
1133 1173 2
1134 1135 1
1134 1174 4
1135 1136 2
1135 1175 4
1136 1137 4
1136 1176 3
1137 1138 2
1137 1177 2
1138 1139 2
1138 1178 3
1139 1140 3
1139 1179 1
1140 1141 3
1140 1180 5
1141 1142 1
1141 1181 5
1142 1143 2
1142 1182 3
1143 1144 2
1143 1183 5
1144 1145 5
1144 1184 5
1145 1146 1
1145 1185 1
1146 1147 1
1146 1186 3
1147 1148 3
1147 1187 5
1148 1149 1
1148 1188 4
1149 1150 2
1149 1189 5
1150 1151 3
1150 1190 2
1151 1152 1
1151 1191 3
1152 1153 4
1152 1192 2
1153 1154 4
1153 1193 1
1154 1155 2
1154 1194 5
1155 1156 1
1155 1195 2
1156 1157 5
1156 1196 5
1157 1158 2
1157 1197 3
1158 1159 1
1158 1198 4
1159 1160 5
1159 1199 4
1160 1200 2
1161 1162 4
1161 1201 2
1162 1163 5
1162 1202 4
1163 1164 4
1163 1203 2
1164 1165 5
1164 1204 4
1165 1166 4
1165 1205 5
1166 1167 2
1166 1206 2
1167 1168 4
1167 1207 3
1168 1169 3
1168 1208 3
1169 1170 3
1169 1209 2
1170 1171 5
1170 1210 5
1171 1172 3
1171 1211 5
1172 1173 2
1172 1212 1
1173 1174 1
1173 1213 4
1174 1175 4
1174 1214 3
1175 1176 4
1175 1215 5
1176 1177 4
1176 1216 2
1177 1178 5
1177 1217 3
1178 1179 1
1178 1218 5
1179 1180 3
1179 1219 4
1180 1181 4
1180 1220 4
1181 1182 3
1181 1221 1
1182 1183 5
1182 1222 4
1183 1184 5
1183 1223 1
1184 1185 5
1184 1224 3
1185 1186 4
1185 1225 5
1186 1187 5
1186 1226 3
1187 1188 4
1187 1227 5
1188 1189 2
1188 1228 3
1189 1190 4
1189 1229 2
1190 1191 4
1190 1230 1
1191 1192 4
1191 1231 1
1192 1193 2
1192 1232 5
1193 1194 1
1193 1233 2
1194 1195 3
1194 1234 3
1195 1196 5
1195 1235 4
1196 1197 4
1196 1236 2
1197 1198 5
1197 1237 2
1198 1199 4
1198 1238 2
1199 1200 4
1199 1239 5
1200 1240 4
1201 1202 5
1201 1241 2
1202 1203 1
1202 1242 2
1203 1204 4
1203 1243 1
1204 1205 5
1204 1244 5
1205 1206 3
1205 1245 3
1206 1207 2
1206 1246 1
1207 1208 4
1207 1247 4
1208 1209 3
1208 1248 2
1209 1210 2
1209 1249 1
1210 1211 5
1210 1250 3
1211 1212 4
1211 1251 1
1212 1213 3
1212 1252 2
1213 1214 4
1213 1253 3
1214 1215 5
1214 1254 2
1215 1216 2
1215 1255 5
1216 1217 1
1216 1256 4
1217 1218 3
1217 1257 1
1218 1219 1
1218 1258 3
1219 1220 5
1219 1259 2
1220 1221 4
1220 1260 5
1221 1222 4
1221 1261 5
1222 1223 3
1222 1262 1
1223 1224 4
1223 1263 5
1224 1225 5
1224 1264 5
1225 1226 4
1225 1265 4
1226 1227 3
1226 1266 3
1227 1228 3
1227 1267 4
1228 1229 4
1228 1268 1
1229 1230 2
1229 1269 3
1230 1231 4
1230 1270 5
1231 1232 5
1231 1271 1
1232 1233 1
1232 1272 2
1233 1234 1
1233 1273 1
1234 1235 5
1234 1274 4
1235 1236 3
1235 1275 1
1236 1237 1
1236 1276 3
1237 1238 5
1237 1277 1
1238 1239 3
1238 1278 2
1239 1240 1
1239 1279 3
1240 1280 1
1241 1242 2
1241 1281 4
1242 1243 5
1242 1282 4
1243 1244 3
1243 1283 5
1244 1245 3
1244 1284 2
1245 1246 5
1245 1285 4
1246 1247 5
1246 1286 3
1247 1248 4
1247 1287 2
1248 1249 5
1248 1288 5
1249 1250 4
1249 1289 2
1250 1251 3
1250 1290 3
1251 1252 3
1251 1291 2
1252 1253 3
1252 1292 4
1253 1254 3
1253 1293 5
1254 1255 5
1254 1294 5
1255 1256 2
1255 1295 5
1256 1257 3
1256 1296 2
1257 1258 2
1257 1297 5
1258 1259 4
1258 1298 3
1259 1260 2
1259 1299 3
1260 1261 5
1260 1300 4
1261 1262 4
1261 1301 2
1262 1263 1
1262 1302 4
1263 1264 1
1263 1303 4
1264 1265 1
1264 1304 5
1265 1266 4
1265 1305 2
1266 1267 1
1266 1306 5
1267 1268 5
1267 1307 4
1268 1269 4
1268 1308 2
1269 1270 3
1269 1309 3
1270 1271 2
1270 1310 4
1271 1272 3
1271 1311 4
1272 1273 1
1272 1312 4
1273 1274 2
1273 1313 5
1274 1275 2
1274 1314 4
1275 1276 5
1275 1315 2
1276 1277 3
1276 1316 3
1277 1278 4
1277 1317 3
1278 1279 2
1278 1318 3
1279 1280 2
1279 1319 3
1280 1320 1
1281 1282 3
1281 1321 4
1282 1283 1
1282 1322 3
1283 1284 3
1283 1323 3
1284 1285 4
1284 1324 2
1285 1286 5
1285 1325 2
1286 1287 1
1286 1326 2
1287 1288 5
1287 1327 2
1288 1289 4
1288 1328 4
1289 1290 4
1289 1329 4
1290 1291 4
1290 1330 2
1291 1292 5
1291 1331 3
1292 1293 3
1292 1332 3
1293 1294 4
1293 1333 4
1294 1295 5
1294 1334 3
1295 1296 2
1295 1335 2
1296 1297 4
1296 1336 5
1297 1298 2
1297 1337 2
1298 1299 5
1298 1338 1
1299 1300 5
1299 1339 4
1300 1301 5
1300 1340 2
1301 1302 2
1301 1341 4
1302 1303 2
1302 1342 4
1303 1304 4
1303 1343 2
1304 1305 2
1304 1344 3
1305 1306 5
1305 1345 1
1306 1307 1
1306 1346 4
1307 1308 2
1307 1347 3
1308 1309 3
1308 1348 5
1309 1310 3
1309 1349 5
1310 1311 2
1310 1350 3
1311 1312 1
1311 1351 1
1312 1313 1
1312 1352 4
1313 1314 5
1313 1353 1
1314 1315 3
1314 1354 2
1315 1316 3
1315 1355 1
1316 1317 2
1316 1356 4
1317 1318 1
1317 1357 4
1318 1319 4
1318 1358 3
1319 1320 1
1319 1359 2
1320 1360 5
1321 1322 2
1321 1361 3
1322 1323 3
1322 1362 1
1323 1324 3
1323 1363 2
1324 1325 5
1324 1364 1
1325 1326 5
1325 1365 5
1326 1327 2
1326 1366 3
1327 1328 2
1327 1367 4
1328 1329 3
1328 1368 5
1329 1330 2
1329 1369 1
1330 1331 2
1330 1370 4
1331 1332 4
1331 1371 3
1332 1333 3
1332 1372 1
1333 1334 5
1333 1373 2
1334 1335 1
1334 1374 5
1335 1336 4
1335 1375 3
1336 1337 1
1336 1376 5
1337 1338 5
1337 1377 3
1338 1339 4
1338 1378 5
1339 1340 3
1339 1379 2
1340 1341 2
1340 1380 5
1341 1342 4
1341 1381 4
1342 1343 3
1342 1382 5
1343 1344 2
1343 1383 4
1344 1345 1
1344 1384 4
1345 1346 2
1345 1385 5
1346 1347 4
1346 1386 4
1347 1348 1
1347 1387 3
1348 1349 1
1348 1388 4
1349 1350 1
1349 1389 1
1350 1351 5
1350 1390 1
1351 1352 4
1351 1391 2
1352 1353 4
1352 1392 2
1353 1354 2
1353 1393 1
1354 1355 4
1354 1394 2
1355 1356 5
1355 1395 5
1356 1357 4
1356 1396 2
1357 1358 1
1357 1397 1
1358 1359 4
1358 1398 5
1359 1360 3
1359 1399 2
1360 1400 5
1361 1362 5
1361 1401 4
1362 1363 3
1362 1402 4
1363 1364 1
1363 1403 1
1364 1365 4
1364 1404 2
1365 1366 4
1365 1405 1
1366 1367 5
1366 1406 3
1367 1368 4
1367 1407 1
1368 1369 1
1368 1408 4
1369 1370 5
1369 1409 3
1370 1371 5
1370 1410 1
1371 1372 2
1371 1411 5
1372 1373 4
1372 1412 5
1373 1374 3
1373 1413 5
1374 1375 5
1374 1414 1
1375 1376 3
1375 1415 3
1376 1377 3
1376 1416 3
1377 1378 2
1377 1417 4
1378 1379 3
1378 1418 4
1379 1380 1
1379 1419 5
1380 1381 3
1380 1420 4
1381 1382 2
1381 1421 3
1382 1383 1
1382 1422 1
1383 1384 1
1383 1423 1
1384 1385 4
1384 1424 4
1385 1386 3
1385 1425 5
1386 1387 5
1386 1426 3
1387 1388 5
1387 1427 4
1388 1389 3
1388 1428 1
1389 1390 2
1389 1429 4
1390 1391 2
1390 1430 5
1391 1392 4
1391 1431 2
1392 1393 1
1392 1432 5
1393 1394 3
1393 1433 4
1394 1395 2
1394 1434 5
1395 1396 1
1395 1435 1
1396 1397 2
1396 1436 2
1397 1398 3
1397 1437 5
1398 1399 4
1398 1438 3
1399 1400 4
1399 1439 1
1400 1440 2
1401 1402 4
1401 1441 5
1402 1403 1
1402 1442 2
1403 1404 5
1403 1443 4
1404 1405 1
1404 1444 4
1405 1406 2
1405 1445 2
1406 1407 3
1406 1446 5
1407 1408 1
1407 1447 1
1408 1409 4
1408 1448 5
1409 1410 4
1409 1449 4
1410 1411 3
1410 1450 2
1411 1412 5
1411 1451 4
1412 1413 5
1412 1452 3
1413 1414 3
1413 1453 5
1414 1415 2
1414 1454 3
1415 1416 1
1415 1455 3
1416 1417 2
1416 1456 1
1417 1418 1
1417 1457 3
1418 1419 4
1418 1458 4
1419 1420 4
1419 1459 3
1420 1421 1
1420 1460 4
1421 1422 5
1421 1461 1
1422 1423 4
1422 1462 4
1423 1424 2
1423 1463 4
1424 1425 3
1424 1464 1
1425 1426 3
1425 1465 4
1426 1427 1
1426 1466 5
1427 1428 1
1427 1467 4
1428 1429 4
1428 1468 4
1429 1430 5
1429 1469 3
1430 1431 1
1430 1470 3
1431 1432 5
1431 1471 5
1432 1433 3
1432 1472 5
1433 1434 2
1433 1473 3
1434 1435 2
1434 1474 3
1435 1436 2
1435 1475 5
1436 1437 5
1436 1476 2
1437 1438 1
1437 1477 5
1438 1439 3
1438 1478 3
1439 1440 5
1439 1479 4
1440 1480 4
1441 1442 5
1441 1481 4
1442 1443 5
1442 1482 2
1443 1444 2
1443 1483 5
1444 1445 3
1444 1484 1
1445 1446 3
1445 1485 5
1446 1447 4
1446 1486 5
1447 1448 5
1447 1487 4
1448 1449 5
1448 1488 1
1449 1450 3
1449 1489 5
1450 1451 5
1450 1490 2
1451 1452 4
1451 1491 1
1452 1453 2
1452 1492 2
1453 1454 3
1453 1493 4
1454 1455 3
1454 1494 1
1455 1456 5
1455 1495 4
1456 1457 5
1456 1496 3
1457 1458 4
1457 1497 3
1458 1459 5
1458 1498 1
1459 1460 5
1459 1499 1
1460 1461 5
1460 1500 4
1461 1462 3
1461 1501 3
1462 1463 3
1462 1502 5
1463 1464 1
1463 1503 1
1464 1465 2
1464 1504 5
1465 1466 2
1465 1505 1
1466 1467 1
1466 1506 2
1467 1468 1
1467 1507 5
1468 1469 5
1468 1508 2
1469 1470 3
1469 1509 2
1470 1471 1
1470 1510 1
1471 1472 4
1471 1511 3
1472 1473 5
1472 1512 4
1473 1474 1
1473 1513 4
1474 1475 5
1474 1514 2
1475 1476 5
1475 1515 4
1476 1477 2
1476 1516 2
1477 1478 1
1477 1517 5
1478 1479 5
1478 1518 5
1479 1480 3
1479 1519 4
1480 1520 4
1481 1482 5
1481 1521 2
1482 1483 2
1482 1522 2
1483 1484 2
1483 1523 1
1484 1485 1
1484 1524 4
1485 1486 3
1485 1525 5
1486 1487 5
1486 1526 4
1487 1488 3
1487 1527 3
1488 1489 5
1488 1528 3
1489 1490 1
1489 1529 5
1490 1491 4
1490 1530 5
1491 1492 1
1491 1531 2
1492 1493 5
1492 1532 2
1493 1494 1
1493 1533 3
1494 1495 2
1494 1534 3
1495 1496 1
1495 1535 2
1496 1497 1
1496 1536 2
1497 1498 4
1497 1537 5
1498 1499 5
1498 1538 3
1499 1500 5
1499 1539 2
1500 1501 4
1500 1540 3
1501 1502 2
1501 1541 2
1502 1503 2
1502 1542 3
1503 1504 5
1503 1543 5
1504 1505 4
1504 1544 2
1505 1506 3
1505 1545 2
1506 1507 4
1506 1546 4
1507 1508 5
1507 1547 4
1508 1509 5
1508 1548 3
1509 1510 4
1509 1549 5
1510 1511 3
1510 1550 5
1511 1512 3
1511 1551 2
1512 1513 1
1512 1552 4
1513 1514 5
1513 1553 2
1514 1515 3
1514 1554 5
1515 1516 2
1515 1555 4
1516 1517 1
1516 1556 5
1517 1518 2
1517 1557 2
1518 1519 3
1518 1558 4
1519 1520 5
1519 1559 5
1520 1560 4
1521 1522 5
1521 1561 5
1522 1523 2
1522 1562 2
1523 1524 5
1523 1563 1
1524 1525 3
1524 1564 1
1525 1526 4
1525 1565 2
1526 1527 4
1526 1566 3
1527 1528 4
1527 1567 1
1528 1529 4
1528 1568 1
1529 1530 5
1529 1569 4
1530 1531 4
1530 1570 4
1531 1532 2
1531 1571 1
1532 1533 3
1532 1572 3
1533 1534 4
1533 1573 5
1534 1535 4
1534 1574 2
1535 1536 1
1535 1575 2
1536 1537 5
1536 1576 2
1537 1538 5
1537 1577 4
1538 1539 5
1538 1578 1
1539 1540 2
1539 1579 5
1540 1541 4
1540 1580 4
1541 1542 3
1541 1581 1
1542 1543 2
1542 1582 1
1543 1544 3
1543 1583 1
1544 1545 1
1544 1584 2
1545 1546 3
1545 1585 5
1546 1547 1
1546 1586 4
1547 1548 4
1547 1587 5
1548 1549 1
1548 1588 2
1549 1550 2
1549 1589 5
1550 1551 4
1550 1590 2
1551 1552 3
1551 1591 5
1552 1553 4
1552 1592 3
1553 1554 4
1553 1593 4
1554 1555 1
1554 1594 1
1555 1556 1
1555 1595 2
1556 1557 3
1556 1596 3
1557 1558 4
1557 1597 1
1558 1559 2
1558 1598 2
1559 1560 5
1559 1599 5
1560 1600 3
1561 1562 2
1562 1563 3
1563 1564 5
1564 1565 4
1565 1566 2
1566 1567 4
1567 1568 1
1568 1569 2
1569 1570 1
1570 1571 1
1571 1572 5
1572 1573 4
1573 1574 1
1574 1575 5
1575 1576 2
1576 1577 2
1577 1578 4
1578 1579 2
1579 1580 4
1580 1581 5
1581 1582 5
1582 1583 5
1583 1584 4
1584 1585 4
1585 1586 3
1586 1587 2
1587 1588 4
1588 1589 5
1589 1590 2
1590 1591 3
1591 1592 3
1592 1593 1
1593 1594 3
1594 1595 3
1595 1596 2
1596 1597 3
1597 1598 3
1598 1599 5
1599 1600 5
